p cnf 21 45
-1 0 

-4 0 

-1 -4 7 0 

1 -7 0 

4 -7 0 

-2 -5 8 0 

2 -8 0 

5 -8 0 

-3 -6 9 0 

3 -9 0 

6 -9 0 

-13 -7 10 0 

13 -10 0 

7 -10 0 

-14 -8 11 0 

14 -11 0 

8 -11 0 

-15 -9 12 0 

15 -12 0 

9 -12 0 

-7 -16 0 

7 16 0 

-8 -17 0 

8 17 0 

-9 -18 0 

9 18 0 

-13 -7 19 0 

13 -19 0 

7 -19 0 

-14 -8 20 0 

14 -20 0 

8 -20 0 

-15 -9 21 0 

15 -21 0 

9 -21 0 

12 0 

-18 0 

-16 2 0 

16 -2 0 

-10 5 0 

10 -5 0 

-17 3 0 

17 -3 0 

-11 6 0 

11 -6 0 
